
n_res = 4;
rcap = [54, 66, 517, 525];
rtype = [1, 1, 2, 2];
n_tasks = 100;
modes =  [{1, 2, 3}, {4, 5, 6}, {7, 8, 9}, {10, 11, 12}, {13, 14, 15}, {16, 17, 18}, {19, 20, 21}, {22, 23, 24}, {25, 26, 27}, {28, 29, 30}, {31, 32, 33}, {34, 35, 36}, {37, 38, 39}, {40, 41, 42}, {43, 44, 45}, {46, 47, 48}, {49, 50, 51}, {52, 53, 54}, {55, 56, 57}, {58, 59, 60}, {61, 62, 63}, {64, 65, 66}, {67, 68, 69}, {70, 71, 72}, {73, 74, 75}, {76, 77, 78}, {79, 80, 81}, {82, 83, 84}, {85, 86, 87}, {88, 89, 90}, {91, 92, 93}, {94, 95, 96}, {97, 98, 99}, {100, 101, 102}, {103, 104, 105}, {106, 107, 108}, {109, 110, 111}, {112, 113, 114}, {115, 116, 117}, {118, 119, 120}, {121, 122, 123}, {124, 125, 126}, {127, 128, 129}, {130, 131, 132}, {133, 134, 135}, {136, 137, 138}, {139, 140, 141}, {142, 143, 144}, {145, 146, 147}, {148, 149, 150}, {151, 152, 153}, {154, 155, 156}, {157, 158, 159}, {160, 161, 162}, {163, 164, 165}, {166, 167, 168}, {169, 170, 171}, {172, 173, 174}, {175, 176, 177}, {178, 179, 180}, {181, 182, 183}, {184, 185, 186}, {187, 188, 189}, {190, 191, 192}, {193, 194, 195}, {196, 197, 198}, {199, 200, 201}, {202, 203, 204}, {205, 206, 207}, {208, 209, 210}, {211, 212, 213}, {214, 215, 216}, {217, 218, 219}, {220, 221, 222}, {223, 224, 225}, {226, 227, 228}, {229, 230, 231}, {232, 233, 234}, {235, 236, 237}, {238, 239, 240}, {241, 242, 243}, {244, 245, 246}, {247, 248, 249}, {250, 251, 252}, {253, 254, 255}, {256, 257, 258}, {259, 260, 261}, {262, 263, 264}, {265, 266, 267}, {268, 269, 270}, {271, 272, 273}, {274, 275, 276}, {277, 278, 279}, {280, 281, 282}, {283, 284, 285}, {286, 287, 288}, {289, 290, 291}, {292, 293, 294}, {295, 296, 297}, {298, 299, 300}];
succ =  [{96, 67, 66, 64, 60, 56, 55, 43, 42, 41, 36, 27, 8}, {100, 96, 86, 84, 68, 66, 65, 64, 60, 59, 57, 56, 55, 54, 52, 44, 43, 41, 21}, {94, 90, 68, 66, 65, 64, 61, 60, 59, 55, 54, 52, 46, 44, 43, 41, 38, 21}, {99, 96, 84, 68, 65, 64, 60, 56, 55, 51, 43, 42, 41, 21}, {99, 97, 96, 88, 84, 67, 64, 63, 62, 60, 59, 56, 52, 50, 43, 42, 41, 37}, {100, 96, 88, 84, 64, 60, 56, 51, 42, 21}, {100, 92, 57, 54, 43, 41, 39, 29, 21}, {100, 94, 92, 88, 86, 84, 68, 65, 59, 57, 44, 21}, {97, 93, 91, 90, 88, 81, 64, 63, 62, 61, 60, 59, 56, 41, 33}, {99, 94, 92, 90, 82, 67, 66, 59, 58, 23}, {92, 90, 86, 84, 65, 61, 55, 54, 21}, {99, 96, 93, 91, 87, 86, 84, 64, 59, 56, 54, 52, 50, 44, 41}, {96, 94, 92, 89, 87, 86, 84, 78, 75, 62, 59, 55, 54, 50, 43, 41}, {96, 94, 90, 89, 88, 85, 83, 81, 80, 76, 59, 42, 32}, {100, 96, 94, 93, 92, 90, 88, 86, 84, 82, 81, 79, 78, 64, 62, 60, 59, 58, 54, 53, 50}, {100, 97, 91, 90, 87, 86, 84, 82, 79, 75, 64, 62, 60, 59, 58, 55, 50, 44}, {97, 96, 94, 92, 90, 89, 88, 87, 86, 85, 84, 83, 81, 79, 78, 76, 75, 74, 63, 62, 60, 58, 54, 50}, {98, 95, 94, 92, 91, 90, 89, 88, 86, 85, 83, 82, 81, 79, 76, 66, 63, 61, 60, 59, 58, 50}, {98, 96, 93, 92, 91, 90, 89, 86, 85, 84, 83, 82, 81, 80, 79, 77, 75, 74, 68, 64, 63, 58, 55}, {97, 94, 92, 89, 86, 84, 82, 79, 78, 59, 58, 55, 50, 43}, {98, 97, 95, 93, 91, 89, 85, 83, 82, 81, 79, 78, 76, 74, 63, 62, 58, 53, 50}, {91, 90, 89, 86, 85, 84, 83, 82, 81, 78, 77, 74, 67, 66, 63, 62, 55, 53}, {96, 91, 89, 86, 85, 84, 83, 81, 79, 78, 74, 64, 62, 55, 54, 53, 50}, {93, 92, 85, 84, 83, 77, 76, 67, 66, 56, 55, 54, 40}, {99, 97, 90, 89, 88, 87, 86, 85, 84, 82, 81, 79, 72, 65, 58, 48}, {92, 89, 88, 86, 85, 84, 83, 79, 77, 72, 71, 65, 64, 56, 51}, {99, 95, 92, 89, 88, 82, 81, 78, 76, 71, 65, 53, 51, 50}, {93, 92, 85, 84, 80, 77, 67, 62, 55, 37}, {91, 90, 89, 86, 85, 84, 83, 82, 80, 79, 78, 76, 73, 72, 53}, {94, 86, 77, 76, 75, 73, 72, 66, 41}, {97, 96, 90, 83, 82, 80, 79, 78, 76, 75, 72, 63, 60}, {99, 93, 92, 86, 84, 82, 78, 75, 74, 72, 71, 67, 62}, {96, 94, 86, 85, 84, 83, 82, 78, 76, 73, 72, 53}, {89, 86, 82, 81, 79, 77, 76, 72, 71, 53}, {94, 87, 79, 78, 77, 76, 75, 58, 54}, {95, 89, 84, 81, 80, 79, 78, 77, 74, 73, 72, 70}, {90, 83, 82, 81, 78, 73, 72, 71, 53}, {96, 86, 84, 82, 81, 76, 74, 73, 72, 62}, {93, 83, 77, 70, 59, 55}, {91, 88, 78, 75, 74, 73, 71, 62}, {95, 85, 82, 80, 79, 74, 58}, {92, 91, 86, 58, 54}, {95, 91, 85, 83, 81, 77, 76, 74}, {89, 85, 83, 81, 74, 73, 71, 70}, {89, 84, 81, 78, 75, 58}, {87, 82, 78, 76, 75, 72, 70}, {87, 84, 80, 77, 76, 71, 70}, {95, 93, 83, 78, 71, 62}, {84, 77, 75, 74, 72, 70}, {80, 77, 73, 72}, {93, 90, 80, 73}, {92, 85, 81, 76}, {87, 75, 70}, {73, 72, 71}, {88, 72, 71}, {94, 75, 70}, {90, 81, 71}, {71, 70}, {74, 73}, {77, 70}, {78, 71}, {70}, {73}, {76}, {74}, {80}, {79}, {73}, {71}, {}, {}, {}, {}, {}, {}, {}, {}, {}, {}, {}, {}, {}, {}, {}, {}, {}, {}, {}, {}, {}, {}, {}, {}, {}, {}, {}, {}, {}, {}, {}];
n_opt = 300;
dur = [5, 8, 10, 3, 4, 5, 1, 2, 9, 2, 9, 10, 3, 5, 7, 3, 7, 8, 4, 9, 10, 2, 9, 10, 2, 3, 7, 3, 5, 9, 5, 8, 9, 4, 6, 7, 6, 7, 9, 6, 8, 10, 1, 7, 8, 1, 3, 4, 2, 6, 7, 1, 3, 6, 6, 8, 9, 4, 7, 8, 4, 5, 6, 6, 7, 9, 6, 7, 8, 2, 3, 9, 1, 2, 3, 2, 4, 6, 7, 8, 9, 2, 3, 4, 2, 3, 10, 2, 3, 9, 1, 6, 7, 7, 8, 9, 1, 7, 8, 3, 8, 10, 3, 5, 10, 4, 5, 6, 1, 2, 8, 1, 7, 10, 2, 4, 10, 1, 2, 3, 2, 9, 10, 5, 6, 8, 1, 2, 5, 2, 3, 4, 2, 8, 10, 4, 7, 8, 2, 3, 10, 7, 8, 10, 5, 8, 10, 4, 8, 10, 7, 8, 9, 4, 5, 6, 2, 3, 8, 3, 5, 6, 3, 6, 7, 1, 3, 5, 1, 2, 5, 1, 8, 10, 6, 7, 8, 3, 6, 8, 2, 5, 7, 1, 2, 5, 5, 7, 8, 6, 7, 8, 3, 9, 10, 2, 4, 9, 1, 2, 5, 4, 8, 9, 4, 8, 9, 2, 4, 5, 7, 8, 9, 2, 5, 9, 2, 3, 6, 3, 4, 6, 2, 3, 8, 4, 7, 10, 4, 7, 10, 3, 8, 10, 2, 4, 5, 3, 4, 6, 7, 9, 10, 2, 4, 10, 3, 4, 9, 4, 5, 10, 5, 9, 10, 2, 4, 6, 1, 5, 10, 2, 8, 9, 4, 7, 8, 1, 3, 4, 6, 7, 10, 3, 9, 10, 2, 3, 9, 5, 6, 9, 1, 2, 3, 1, 2, 3, 5, 7, 8, 5, 6, 8, 7, 8, 9, 1, 6, 8];
rreq = [|7, 5, 5, 9, 9, 8, 6, 6, 4, 4, 4, 4, 4, 4, 1, 5, 5, 4, 5, 5, 5, 8, 6, 4, 3, 1, 1, 6, 5, 5, 7, 3, 3, 9, 6, 5, 5, 2, 1, 6, 4, 4, 4, 2, 1, 6, 6, 3, 7, 7, 7, 1, 1, 1, 8, 7, 7, 9, 9, 8, 4, 3, 2, 4, 3, 3, 8, 8, 8, 5, 5, 5, 6, 6, 6, 3, 2, 2, 1, 1, 1, 2, 2, 1, 10, 9, 9, 7, 7, 7, 5, 4, 4, 3, 3, 3, 10, 8, 8, 8, 6, 6, 5, 5, 3, 6, 4, 4, 6, 5, 1, 9, 7, 6, 9, 7, 4, 9, 6, 2, 9, 7, 5, 8, 4, 4, 6, 4, 4, 3, 2, 2, 9, 9, 7, 6, 5, 4, 10, 8, 6, 6, 6, 5, 6, 3, 2, 4, 3, 3, 1, 1, 1, 5, 4, 3, 4, 4, 3, 10, 8, 6, 6, 2, 1, 4, 3, 3, 10, 10, 10, 7, 5, 2, 9, 6, 4, 6, 6, 6, 9, 6, 6, 5, 5, 3, 4, 3, 1, 8, 8, 8, 9, 6, 5, 2, 2, 2, 3, 2, 2, 2, 2, 2, 6, 6, 6, 1, 1, 1, 1, 1, 1, 7, 7, 5, 9, 8, 8, 10, 6, 3, 5, 4, 3, 4, 3, 2, 8, 5, 3, 4, 3, 2, 3, 3, 3, 5, 3, 1, 2, 1, 1, 4, 2, 2, 7, 5, 4, 2, 1, 1, 5, 4, 3, 8, 6, 3, 7, 6, 6, 8, 8, 8, 7, 5, 5, 4, 4, 4, 4, 3, 1, 9, 7, 5, 8, 7, 6, 9, 6, 2, 9, 9, 7, 7, 7, 5, 3, 2, 2, 3, 3, 3, 5, 4, 1, 8, 6, 3
 |5, 4, 4, 8, 6, 6, 5, 4, 4, 10, 9, 8, 10, 10, 10, 8, 7, 7, 10, 7, 6, 10, 8, 8, 6, 4, 3, 6, 5, 2, 5, 4, 2, 5, 3, 3, 1, 1, 1, 4, 4, 4, 10, 6, 5, 7, 6, 5, 9, 7, 7, 4, 3, 3, 6, 6, 5, 10, 8, 8, 8, 8, 8, 5, 5, 5, 8, 5, 5, 9, 8, 8, 9, 7, 5, 5, 3, 3, 7, 5, 4, 9, 9, 9, 2, 1, 1, 7, 6, 6, 9, 9, 8, 6, 2, 1, 3, 2, 2, 8, 6, 4, 7, 6, 6, 9, 9, 9, 7, 4, 2, 7, 6, 3, 4, 4, 4, 7, 5, 3, 5, 4, 3, 3, 2, 2, 7, 7, 3, 6, 6, 5, 9, 9, 8, 7, 3, 1, 10, 7, 3, 6, 6, 5, 9, 9, 9, 8, 6, 6, 7, 5, 3, 3, 3, 3, 7, 5, 2, 7, 6, 5, 8, 8, 7, 3, 3, 1, 6, 5, 5, 5, 3, 2, 6, 6, 6, 7, 7, 4, 7, 6, 6, 10, 10, 10, 6, 5, 4, 10, 7, 6, 6, 5, 3, 10, 7, 3, 6, 5, 5, 7, 7, 5, 10, 10, 10, 9, 5, 4, 3, 2, 1, 8, 7, 7, 5, 5, 5, 1, 1, 1, 6, 6, 3, 5, 4, 4, 7, 6, 4, 4, 3, 2, 9, 5, 4, 9, 8, 6, 8, 6, 5, 3, 2, 2, 6, 6, 5, 10, 8, 8, 6, 4, 3, 9, 7, 7, 7, 5, 2, 5, 5, 4, 10, 9, 8, 3, 3, 3, 3, 2, 1, 6, 4, 2, 10, 8, 6, 8, 8, 5, 9, 8, 8, 7, 7, 4, 8, 8, 5, 7, 4, 3, 10, 8, 5, 8, 5, 5
 |8, 4, 3, 6, 4, 3, 7, 5, 1, 9, 9, 9, 7, 4, 1, 10, 8, 5, 8, 6, 5, 7, 7, 5, 6, 4, 3, 6, 5, 5, 6, 5, 4, 1, 1, 1, 6, 5, 5, 6, 5, 3, 6, 5, 3, 6, 5, 4, 9, 8, 7, 3, 2, 2, 9, 3, 1, 4, 4, 4, 7, 7, 6, 8, 8, 8, 3, 2, 1, 8, 8, 8, 2, 1, 1, 4, 4, 4, 2, 2, 2, 10, 8, 5, 6, 4, 3, 6, 6, 4, 10, 4, 3, 5, 4, 2, 5, 3, 1, 7, 7, 7, 3, 2, 1, 7, 3, 3, 6, 3, 2, 9, 7, 6, 9, 5, 5, 6, 6, 4, 5, 5, 4, 10, 5, 2, 4, 4, 1, 5, 4, 3, 4, 4, 3, 7, 3, 3, 3, 3, 1, 7, 6, 4, 7, 7, 7, 7, 6, 6, 8, 6, 4, 9, 6, 4, 7, 3, 2, 9, 8, 7, 8, 4, 2, 9, 9, 8, 6, 5, 5, 2, 1, 1, 6, 5, 4, 4, 3, 2, 10, 9, 8, 8, 6, 5, 6, 6, 5, 5, 4, 4, 4, 3, 2, 7, 6, 6, 6, 6, 6, 5, 5, 4, 9, 8, 8, 7, 5, 5, 5, 2, 1, 3, 2, 2, 7, 4, 4, 2, 1, 1, 7, 6, 4, 8, 8, 5, 10, 9, 7, 6, 3, 3, 5, 5, 3, 3, 2, 2, 6, 6, 5, 6, 6, 6, 3, 3, 2, 7, 6, 4, 8, 6, 6, 8, 8, 8, 4, 2, 2, 4, 4, 4, 7, 6, 5, 7, 7, 7, 3, 3, 3, 2, 2, 1, 8, 7, 6, 8, 7, 6, 5, 4, 3, 8, 5, 5, 7, 4, 3, 9, 7, 6, 9, 5, 5, 9, 9, 9
 |4, 4, 3, 7, 5, 4, 8, 5, 3, 6, 6, 6, 2, 2, 2, 5, 4, 1, 8, 7, 5, 9, 7, 5, 4, 3, 3, 8, 6, 2, 4, 4, 4, 9, 5, 4, 7, 7, 3, 5, 3, 3, 2, 2, 2, 5, 3, 3, 2, 1, 1, 8, 6, 5, 7, 6, 4, 7, 4, 1, 5, 4, 4, 5, 3, 2, 2, 1, 1, 7, 7, 5, 6, 5, 5, 7, 6, 5, 4, 3, 3, 4, 3, 3, 7, 7, 7, 10, 5, 4, 7, 4, 4, 9, 5, 5, 3, 3, 1, 8, 5, 5, 9, 7, 7, 7, 6, 3, 5, 3, 2, 3, 3, 2, 5, 4, 3, 9, 8, 8, 6, 6, 5, 4, 2, 2, 10, 9, 8, 6, 6, 6, 7, 6, 7, 10, 9, 9, 3, 2, 2, 4, 3, 3, 10, 7, 2, 6, 5, 4, 9, 8, 8, 5, 4, 4, 6, 6, 5, 8, 6, 3, 7, 5, 5, 8, 5, 2, 7, 7, 6, 6, 5, 2, 4, 3, 3, 7, 3, 3, 6, 4, 4, 6, 6, 5, 10, 6, 1, 6, 4, 3, 3, 3, 3, 9, 8, 7, 8, 8, 7, 6, 3, 1, 8, 6, 5, 8, 5, 4, 1, 1, 1, 7, 6, 4, 10, 8, 6, 7, 7, 5, 8, 7, 7, 8, 6, 5, 10, 7, 6, 5, 5, 5, 7, 7, 7, 9, 8, 8, 5, 4, 3, 8, 6, 5, 9, 8, 7, 3, 3, 3, 4, 4, 2, 3, 3, 3, 8, 8, 7, 8, 7, 7, 5, 4, 3, 6, 5, 4, 2, 1, 1, 5, 5, 5, 7, 5, 2, 9, 9, 9, 4, 3, 3, 7, 3, 1, 5, 5, 4, 9, 7, 7, 7, 6, 6, 7, 3, 2|];